&CONTROL
   prefix           = 'kc'
   outdir           = 'TMP/'
   kcw_iverbosity   = 1
   kcw_at_ks        = .false.
   calculation      = 'ham'
   lrpa             = .false.
   mp1              = 2
   mp2              = 2
   mp3              = 2
   homo_only        = .false.
   read_unitary_matrix = .true.
   l_vcut           = .true.
/
&WANNIER
   seedname         = 'wann'
   check_ks         = .true.
   num_wann_occ     = 4
   num_wann_emp     = 4
   have_empty       = .true.
   has_disentangle  = .true.
/
&HAM
   do_bands         = .true.
   use_ws_distance  = .true.
   write_hr         = .true.
   l_alpha_corr     = .false.
/
K_POINTS crystal_b
23
0.00000000000000 0.00000000000000 0.00000000000000 0
0.04545454545455 0.00000000000000 0.04545454545455 0
0.09090909090909 0.00000000000000 0.09090909090909 0
0.13636363636364 0.00000000000000 0.13636363636364 0
0.18181818181818 0.00000000000000 0.18181818181818 0
0.22727272727273 0.00000000000000 0.22727272727273 0
0.27272727272727 0.00000000000000 0.27272727272727 0
0.31818181818182 0.00000000000000 0.31818181818182 0
0.36363636363636 0.00000000000000 0.36363636363636 0
0.40909090909091 0.00000000000000 0.40909090909091 0
0.45454545454545 0.00000000000000 0.45454545454545 0
0.50000000000000 0.00000000000000 0.50000000000000 0
0.45454545454545 0.00000000000000 0.45454545454545 0
0.40909090909091 0.00000000000000 0.40909090909091 0
0.36363636363636 0.00000000000000 0.36363636363636 0
0.31818181818182 0.00000000000000 0.31818181818182 0
0.27272727272727 0.00000000000000 0.27272727272727 0
0.22727272727273 0.00000000000000 0.22727272727273 0
0.18181818181818 0.00000000000000 0.18181818181818 0
0.13636363636364 0.00000000000000 0.13636363636364 0
0.09090909090909 0.00000000000000 0.09090909090909 0
0.04545454545455 0.00000000000000 0.04545454545455 0
0.00000000000000 0.00000000000000 0.00000000000000 0

