&CONTROL
  calculation  = 'nscf'
  prefix       = 'Si'
  pseudo_dir   = '/scratch/degennaro/pseudo/'
  outdir       = './out'
/
&SYSTEM
  ecutwfc = 60
  ibrav   = 2
  celldm(1) = 10.263102
  input_dft = PBE
  nspin = 1
  nat   = 2
  ntyp  = 2
  nbnd  = 12
/
&ELECTRONS
  conv_thr = 10d-8
/
&IONS
/
ATOMIC_SPECIES
 Si1  28.085  Si_ONCV_PBE-1.1.upf
 Si2  28.085  Si_ONCV_PBE-1.1.upf

ATOMIC_POSITIONS crystal
 Si1  0.00  0.00  0.00
 Si2  0.25  0.25  0.25

K_POINTS crystal
64
  0.00000000  0.00000000  0.00000000  1.562500e-02
  0.00000000  0.00000000  0.25000000  1.562500e-02
  0.00000000  0.00000000  0.50000000  1.562500e-02
  0.00000000  0.00000000  0.75000000  1.562500e-02
  0.00000000  0.25000000  0.00000000  1.562500e-02
  0.00000000  0.25000000  0.25000000  1.562500e-02
  0.00000000  0.25000000  0.50000000  1.562500e-02
  0.00000000  0.25000000  0.75000000  1.562500e-02
  0.00000000  0.50000000  0.00000000  1.562500e-02
  0.00000000  0.50000000  0.25000000  1.562500e-02
  0.00000000  0.50000000  0.50000000  1.562500e-02
  0.00000000  0.50000000  0.75000000  1.562500e-02
  0.00000000  0.75000000  0.00000000  1.562500e-02
  0.00000000  0.75000000  0.25000000  1.562500e-02
  0.00000000  0.75000000  0.50000000  1.562500e-02
  0.00000000  0.75000000  0.75000000  1.562500e-02
  0.25000000  0.00000000  0.00000000  1.562500e-02
  0.25000000  0.00000000  0.25000000  1.562500e-02
  0.25000000  0.00000000  0.50000000  1.562500e-02
  0.25000000  0.00000000  0.75000000  1.562500e-02
  0.25000000  0.25000000  0.00000000  1.562500e-02
  0.25000000  0.25000000  0.25000000  1.562500e-02
  0.25000000  0.25000000  0.50000000  1.562500e-02
  0.25000000  0.25000000  0.75000000  1.562500e-02
  0.25000000  0.50000000  0.00000000  1.562500e-02
  0.25000000  0.50000000  0.25000000  1.562500e-02
  0.25000000  0.50000000  0.50000000  1.562500e-02
  0.25000000  0.50000000  0.75000000  1.562500e-02
  0.25000000  0.75000000  0.00000000  1.562500e-02
  0.25000000  0.75000000  0.25000000  1.562500e-02
  0.25000000  0.75000000  0.50000000  1.562500e-02
  0.25000000  0.75000000  0.75000000  1.562500e-02
  0.50000000  0.00000000  0.00000000  1.562500e-02
  0.50000000  0.00000000  0.25000000  1.562500e-02
  0.50000000  0.00000000  0.50000000  1.562500e-02
  0.50000000  0.00000000  0.75000000  1.562500e-02
  0.50000000  0.25000000  0.00000000  1.562500e-02
  0.50000000  0.25000000  0.25000000  1.562500e-02
  0.50000000  0.25000000  0.50000000  1.562500e-02
  0.50000000  0.25000000  0.75000000  1.562500e-02
  0.50000000  0.50000000  0.00000000  1.562500e-02
  0.50000000  0.50000000  0.25000000  1.562500e-02
  0.50000000  0.50000000  0.50000000  1.562500e-02
  0.50000000  0.50000000  0.75000000  1.562500e-02
  0.50000000  0.75000000  0.00000000  1.562500e-02
  0.50000000  0.75000000  0.25000000  1.562500e-02
  0.50000000  0.75000000  0.50000000  1.562500e-02
  0.50000000  0.75000000  0.75000000  1.562500e-02
  0.75000000  0.00000000  0.00000000  1.562500e-02
  0.75000000  0.00000000  0.25000000  1.562500e-02
  0.75000000  0.00000000  0.50000000  1.562500e-02
  0.75000000  0.00000000  0.75000000  1.562500e-02
  0.75000000  0.25000000  0.00000000  1.562500e-02
  0.75000000  0.25000000  0.25000000  1.562500e-02
  0.75000000  0.25000000  0.50000000  1.562500e-02
  0.75000000  0.25000000  0.75000000  1.562500e-02
  0.75000000  0.50000000  0.00000000  1.562500e-02
  0.75000000  0.50000000  0.25000000  1.562500e-02
  0.75000000  0.50000000  0.50000000  1.562500e-02
  0.75000000  0.50000000  0.75000000  1.562500e-02
  0.75000000  0.75000000  0.00000000  1.562500e-02
  0.75000000  0.75000000  0.25000000  1.562500e-02
  0.75000000  0.75000000  0.50000000  1.562500e-02
  0.75000000  0.75000000  0.75000000  1.562500e-02
