&CONTROL
  calculation  = 'scf'
  restart_mode = 'from_scratch'
  prefix       = 'Si'
  pseudo_dir   = '/scratch/degennaro/pseudo/'
  outdir       = './out'
/
&SYSTEM
  ecutwfc = 60
  ibrav   = 2
  celldm(1) = 10.263102
  input_dft = PBE
  nspin = 1
  nat   = 2
  ntyp  = 2
/
&ELECTRONS
  conv_thr = 10d-8
/
&IONS
/
ATOMIC_SPECIES
 Si1  28.085  Si_ONCV_PBE-1.1.upf
 Si2  28.085  Si_ONCV_PBE-1.1.upf

ATOMIC_POSITIONS crystal
 Si1  0.00  0.00  0.00
 Si2  0.25  0.25  0.25

K_POINTS automatic
 4 4 4 0 0 0
