&CONTROL
    prefix='clorine'
    calculation='cp',
    restart_mode='restart',
    nstep=3, 
    iprint=1, 
    ndr=95
    ndw=195
    dt=3.0,
    pseudo_dir='../../pseudo/',
    outdir='./SCRATCH',
    ekin_conv_thr = 1.0e-5
    etot_conv_thr = 1.0e-6
/
&SYSTEM
    ecutwfc = 50.0 
    ibrav = 1
    celldm(1) = 25.0
    nat = 2
    ntyp = 1
    nbnd = 7
    do_ee =.true.
    which_orbdep='pz'
/
&ELECTRONS
    empty_states_nbnd = 3
    empty_states_maxstep = 150
    electron_dynamics='damp', 
    electron_damping=0.05,
    emass=1000., 
    emass_cutoff=3.,
    ortho_max=500
    !ortho_para=1
/
&IONS
    ion_dynamics='none',
    ion_radius(1)=1.0, 
/
&EE
    which_compensation ='tcc'
 /
ATOMIC_SPECIES
Cl    35.45     Cl.pz-bhs.UPF
ATOMIC_POSITIONS (angstrom)
Cl            .000000     .000000    1.007541
Cl            .000000     .000000   -1.007541


