
   &CONTROL
      calculation = 'scf',
      restart_mode='from_scratch',
      verbosity='default',
      prefix='clorine',
      nstep=100,
      tstress = .false.,
      tprnfor = .true.,
      pseudo_dir = '../../pseudo/',
      outdir = './SCRATCH/'
   /
   &SYSTEM
      ibrav=1,
      celldm(1)=20.0000,
      nat=2,
      ntyp=1,
      ecutwfc=50.0,
      nspin=1,
      nbnd = 10
   /
   &ELECTRONS
      electron_maxstep = 100,
      mixing_mode = 'plain',
      mixing_beta = 0.3,
      conv_thr =  1.0d-8,
   /
ATOMIC_SPECIES
Cl    35.45     Cl.pz-bhs.UPF
ATOMIC_POSITIONS (angstrom)
Cl            .000000     .000000    1.007541
Cl            .000000     .000000   -1.007541
K_POINTS {automatic}
   1 1 1    0  0  0

