&inputpp
   outdir           = '/home/yshubert/code/koopmans/Yannick_tests/simple_water/snapshot_2/init/wannier/TMP'
   prefix           = 'kc'
   seedname         = 'wann'
   wan_mode         = 'standalone'
/
