&CONTROL
    prefix='clorine_spin'
    calculation='cp',
    restart_mode='restart',
    nstep=2, 
    iprint=1, 
    ndr=94
    ndw=194
    dt=3.0,
    pseudo_dir='../../pseudo/',
    outdir='./SCRATCH',
    ekin_conv_thr = 1.0e-5
    etot_conv_thr = 1.0e-6
/
&SYSTEM
    ecutwfc = 50.0 
    ibrav = 1
    celldm(1) = 20.0
    nat = 2
    ntyp = 1
    nbnd = 7
    nspin = 2
    do_ee =.true.
    do_orbdep =.true.
    do_spinsym = T
/
&ELECTRONS
    empty_states_nbnd = 3
    empty_states_maxstep = 200
    electron_dynamics='damp', 
    electron_damping=0.05,
    emass=1000., 
    emass_cutoff=3.,
    ortho_max=500
    !ortho_para=1
/
&IONS
    ion_dynamics='none',
    ion_radius(1)=1.0, 
/
&EE
    which_compensation ='tcc'
/
&NKSIC
    which_orbdep='nk'
    nkscalfact = 0.8
/
ATOMIC_SPECIES
Cl    35.45     Cl.pz-bhs.UPF
ATOMIC_POSITIONS (angstrom)
Cl            .000000     .000000    1.007541
Cl            .000000     .000000   -1.007541


