&projwfc
   outdir           = '/home/yshubert/code/koopmans/Yannick_tests/simple_water/snapshot_1/init/wannier/TMP'
   prefix           = 'kc'
   deltae           = 0.01
   degauss          = 0.01
   filpdos          = 'simple_water'
/
