

          &CONTROL
             calculation = 'cp',
             restart_mode='restart',
             !verbosity='medium',
             prefix='job_spin',
             pseudo_dir = '../../pseudo/',
             outdir = './SCRATCH/'
             nstep=100
             iprint=1
             ndr=94
             ndw=95
             ekin_conv_thr=1.0d-5
             etot_conv_thr=1.0d-6
             dt=15.0
          / 
          &SYSTEM
             ibrav=1,
             celldm(1)=25.0,
             nat=2,
             ntyp=1,
             ecutwfc=35.0,
             nspin=2
             do_ee=.TRUE.
             which_orbdep='pz'
             do_spinsym = .TRUE.
          /
          &ELECTRONS
             electron_dynamics = 'damp'
             electron_damping = 0.05
             emass = 1000
             emass_cutoff=3.,
             ortho_max=500
             ortho_para=1
          /
          &IONS
             ion_dynamics='none',
             ion_radius(1)=1.0,
          /
          &EE
             which_compensation="tcc"
          /
    
    ATOMIC_SPECIES 
      H     1.0    H.pz-vbc.UPF 
    ATOMIC_POSITIONS {bohr}
H      0.000000000     0.000000000    -1.000000000
H      0.000000000     0.000000000     1.000000000
