&control 
    calculation = 'scf' 
    restart_mode = 'from_scratch' 
    prefix = 'Na_13chain' 
    outdir = './' 
    pseudo_dir = '../../../pseudo/'
    wf_collect = .true. 
/ 
&system 
    ibrav= 8 
    a =  39.
    b = 10 
    c = 10 
    nat  = 12
    ntyp = 1 
    ecutwfc = 30 
    occupations = 'smearing' 
    smearing = 'cold' 
    degauss = 0.007 
/ 
&electrons 
    mixing_beta = 0.2 
    conv_thr =  1.0d-10 
    diagonalization = 'cg' 
    startingwfc = 'random' 
/ 
ATOMIC_SPECIES 
 Na  22.9877  Na.pz-n-vbc.UPF 
ATOMIC_POSITIONS {crystal} 
Na 0.0416666666667 0.5 0.5
Na 0.125 0.5 0.5
Na 0.208333333333 0.5 0.5
Na 0.291666666667 0.5 0.5
Na 0.375 0.5 0.5
Na 0.458333333333 0.5 0.5
Na 0.541666666667 0.5 0.5
Na 0.625 0.5 0.5
Na 0.708333333333 0.5 0.5
Na 0.791666666667 0.5 0.5
Na 0.875 0.5 0.5
Na 0.958333333333 0.5 0.5
K_POINTS {gamma} 
