   &CONTROL
       calculation='cp',
       restart_mode='restart',
       prefix='job_real'
       pseudo_dir='../../pseudo/',
       outdir='./SCRATCH/',
       nstep=5000, 
       iprint=1, 
       ndr=91
       ndw=92
       ekin_conv_thr = 1.0e-6
       etot_conv_thr = 1.0e-7
       dt=15.0
   /
   &SYSTEM
       ibrav = 8
       celldm(1) =    18.000000000 
       celldm(2) =     1.000000000 
       celldm(3) =     1.000000000 
       nat = 2
       ntyp = 1
       nspin = 1
       nelec = 10
       nelup = 5
       neldw = 5
       ecutwfc = 60.0
       ecutrho = 240.0
       do_ee = .TRUE.
       nr1b=24
       nr2b=24
       nr3b=24
       do_wf_cmplx=.false.
   /
   &ELECTRONS
       electron_dynamics='damp', 
       electron_damping=0.05,
       emass=300
       emass_cutoff=3.,
       ortho_max=500
   /
   &IONS
       ion_dynamics='none',
       ion_radius(1)=1.0, 
   /
   &EE
       which_compensation ='tcc'
    /
   ATOMIC_SPECIES
N 14.0007 N.pz-vbc.UPF 
   ATOMIC_POSITIONS (angstrom)
N -0.555636 0.d0 0.d0
N 0.555636 0.d0 0.d0
