&CONTROL
   calculation      = 'scf'
   outdir           = 'TMP/'
   prefix           = 'kc'
   pseudo_dir       = '../../../src/koopmans/pseudopotentials/sg15_v1.2/pbe/'
/
&SYSTEM
   ibrav            = 2
   celldm(1)        = 10.263102
   tot_charge       = 0
   ecutwfc          = 60.0
   nspin            = 1
   ntyp             = 1
   nat              = 2
/
&ELECTRONS
   conv_thr         = 1.6e-08
/
&IONS
/
&CELL
/

ATOMIC_SPECIES
Si 28.085 Si_ONCV_PBE-1.2.upf

K_POINTS automatic
2 2 2  0 0 0

ATOMIC_POSITIONS crystal
Si -0.0000000000 0.0000000000 -0.0000000000 
Si 0.2500000000 0.2500000000 0.2500000000 

