&inputpp
   outdir           = 'wannier/TMP'
   prefix           = 'kc'
   seedname         = 'wann'
   wan_mode         = 'standalone'
   spin_component   = 'up'
/
