&inputpp
   outdir           = '/home/elinscott/code/koopmans/tests/tmp/test_singlepoint_si_ki_dfpt_ex0/wannier/TMP'
   prefix           = 'kc'
   seedname         = 'wann'
   wan_mode         = 'standalone'
   spin_component   = 'up'
/
