&CONTROL
  calculation = 'cp'
  disk_io = 'high'
  dt =   0.001
  ekin_conv_thr = 1.0000000000d-07
  iprint = 1
  ndr = 50
  ndw = 50
  nstep = 1
  outdir = './out/'
  prefix = 'Si'
  pseudo_dir = '/home/degennar/pseudo/'
  restart_mode = 'from_scratch'
  verbosity = 'low'
/
&SYSTEM
  do_ee = .true.
  do_orbdep = .false.
  do_wf_cmplx = .false.
  ecutrho =   240
  ecutwfc =   60
  ibrav   = 2
  celldm(1) = 41.052407376
  input_dft = 'PBE'
  nat = 128
  nr1b = 24
  nr2b = 24
  nr3b = 24
  nspin = 2
  ntyp  = 2
  nelec = 513
  nelup = 257
  neldw = 256
  restart_from_wannier_pwscf = .false.
/
&ELECTRONS
  conv_thr =   10d-8
  electron_dynamics = 'cg'
  maxiter = 3
  ortho_para = 1
  passop =   2.0000000000d+00
/
&IONS
  ion_dynamics = 'none'
  ion_nstepe = 5
  ion_radius(1) =   1.0000000000d+00
  ion_radius(2) =   1.0000000000d+00
  ion_radius(3) =   1.0000000000d+00
  ion_radius(4) =   1.0000000000d+00
/
&EE
  which_compensation = 'none'
  tcc_odd = .true.
/
&NKSIC
  do_innerloop = .false.
  do_innerloop_empty = .false.
  do_innerloop_cg = .true.
  esic_conv_thr =   1.0000000000d-012
  innerloop_cg_nreset = 100
  innerloop_cg_nsd = 1
  innerloop_cg_ratio =   1.0000000000d-02
  innerloop_init_n = 3
  innerloop_nmax = 100
  !
  fref  =   5.0000000000d-01
  kfact =   2.0000000000d+00
  !
  which_orbdep = nki
  nkscalfact   = 0.0768049155146
  !
  odd_nkscalfact = .false.
  odd_nkscalfact_empty = .false.
  restart_odd_nkscalfact= .false.
  !
  wo_odd_in_empty_run = .false.
  aux_empty_nbnd = 0
  !
  print_wfc_anion = .false.
  index_empty_to_save = 1
  !
  print_evc0_occ_empty = .false.
/
ATOMIC_SPECIES
 Si1 1 Si_ONCV_PBE-1.1.upf 
 Si2 1 Si_ONCV_PBE-1.1.upf 

ATOMIC_POSITIONS crystal
 Si1  0.00000000  0.00000000  0.00000000
 Si1  0.00000000  0.00000000  0.25000000
 Si1  0.00000000  0.00000000  0.50000000
 Si1  0.00000000  0.00000000  0.75000000
 Si1  0.00000000  0.25000000  0.00000000
 Si1  0.00000000  0.25000000  0.25000000
 Si1  0.00000000  0.25000000  0.50000000
 Si1  0.00000000  0.25000000  0.75000000
 Si1  0.00000000  0.50000000  0.00000000
 Si1  0.00000000  0.50000000  0.25000000
 Si1  0.00000000  0.50000000  0.50000000
 Si1  0.00000000  0.50000000  0.75000000
 Si1  0.00000000  0.75000000  0.00000000
 Si1  0.00000000  0.75000000  0.25000000
 Si1  0.00000000  0.75000000  0.50000000
 Si1  0.00000000  0.75000000  0.75000000
 Si1  0.25000000  0.00000000  0.00000000
 Si1  0.25000000  0.00000000  0.25000000
 Si1  0.25000000  0.00000000  0.50000000
 Si1  0.25000000  0.00000000  0.75000000
 Si1  0.25000000  0.25000000  0.00000000
 Si1  0.25000000  0.25000000  0.25000000
 Si1  0.25000000  0.25000000  0.50000000
 Si1  0.25000000  0.25000000  0.75000000
 Si1  0.25000000  0.50000000  0.00000000
 Si1  0.25000000  0.50000000  0.25000000
 Si1  0.25000000  0.50000000  0.50000000
 Si1  0.25000000  0.50000000  0.75000000
 Si1  0.25000000  0.75000000  0.00000000
 Si1  0.25000000  0.75000000  0.25000000
 Si1  0.25000000  0.75000000  0.50000000
 Si1  0.25000000  0.75000000  0.75000000
 Si1  0.50000000  0.00000000  0.00000000
 Si1  0.50000000  0.00000000  0.25000000
 Si1  0.50000000  0.00000000  0.50000000
 Si1  0.50000000  0.00000000  0.75000000
 Si1  0.50000000  0.25000000  0.00000000
 Si1  0.50000000  0.25000000  0.25000000
 Si1  0.50000000  0.25000000  0.50000000
 Si1  0.50000000  0.25000000  0.75000000
 Si1  0.50000000  0.50000000  0.00000000
 Si1  0.50000000  0.50000000  0.25000000
 Si1  0.50000000  0.50000000  0.50000000
 Si1  0.50000000  0.50000000  0.75000000
 Si1  0.50000000  0.75000000  0.00000000
 Si1  0.50000000  0.75000000  0.25000000
 Si1  0.50000000  0.75000000  0.50000000
 Si1  0.50000000  0.75000000  0.75000000
 Si1  0.75000000  0.00000000  0.00000000
 Si1  0.75000000  0.00000000  0.25000000
 Si1  0.75000000  0.00000000  0.50000000
 Si1  0.75000000  0.00000000  0.75000000
 Si1  0.75000000  0.25000000  0.00000000
 Si1  0.75000000  0.25000000  0.25000000
 Si1  0.75000000  0.25000000  0.50000000
 Si1  0.75000000  0.25000000  0.75000000
 Si1  0.75000000  0.50000000  0.00000000
 Si1  0.75000000  0.50000000  0.25000000
 Si1  0.75000000  0.50000000  0.50000000
 Si1  0.75000000  0.50000000  0.75000000
 Si1  0.75000000  0.75000000  0.00000000
 Si1  0.75000000  0.75000000  0.25000000
 Si1  0.75000000  0.75000000  0.50000000
 Si1  0.75000000  0.75000000  0.75000000
 Si2  0.06250000  0.06250000  0.06250000
 Si2  0.06250000  0.06250000  0.31250000
 Si2  0.06250000  0.06250000  0.56250000
 Si2  0.06250000  0.06250000  0.81250000
 Si2  0.06250000  0.31250000  0.06250000
 Si2  0.06250000  0.31250000  0.31250000
 Si2  0.06250000  0.31250000  0.56250000
 Si2  0.06250000  0.31250000  0.81250000
 Si2  0.06250000  0.56250000  0.06250000
 Si2  0.06250000  0.56250000  0.31250000
 Si2  0.06250000  0.56250000  0.56250000
 Si2  0.06250000  0.56250000  0.81250000
 Si2  0.06250000  0.81250000  0.06250000
 Si2  0.06250000  0.81250000  0.31250000
 Si2  0.06250000  0.81250000  0.56250000
 Si2  0.06250000  0.81250000  0.81250000
 Si2  0.31250000  0.06250000  0.06250000
 Si2  0.31250000  0.06250000  0.31250000
 Si2  0.31250000  0.06250000  0.56250000
 Si2  0.31250000  0.06250000  0.81250000
 Si2  0.31250000  0.31250000  0.06250000
 Si2  0.31250000  0.31250000  0.31250000
 Si2  0.31250000  0.31250000  0.56250000
 Si2  0.31250000  0.31250000  0.81250000
 Si2  0.31250000  0.56250000  0.06250000
 Si2  0.31250000  0.56250000  0.31250000
 Si2  0.31250000  0.56250000  0.56250000
 Si2  0.31250000  0.56250000  0.81250000
 Si2  0.31250000  0.81250000  0.06250000
 Si2  0.31250000  0.81250000  0.31250000
 Si2  0.31250000  0.81250000  0.56250000
 Si2  0.31250000  0.81250000  0.81250000
 Si2  0.56250000  0.06250000  0.06250000
 Si2  0.56250000  0.06250000  0.31250000
 Si2  0.56250000  0.06250000  0.56250000
 Si2  0.56250000  0.06250000  0.81250000
 Si2  0.56250000  0.31250000  0.06250000
 Si2  0.56250000  0.31250000  0.31250000
 Si2  0.56250000  0.31250000  0.56250000
 Si2  0.56250000  0.31250000  0.81250000
 Si2  0.56250000  0.56250000  0.06250000
 Si2  0.56250000  0.56250000  0.31250000
 Si2  0.56250000  0.56250000  0.56250000
 Si2  0.56250000  0.56250000  0.81250000
 Si2  0.56250000  0.81250000  0.06250000
 Si2  0.56250000  0.81250000  0.31250000
 Si2  0.56250000  0.81250000  0.56250000
 Si2  0.56250000  0.81250000  0.81250000
 Si2  0.81250000  0.06250000  0.06250000
 Si2  0.81250000  0.06250000  0.31250000
 Si2  0.81250000  0.06250000  0.56250000
 Si2  0.81250000  0.06250000  0.81250000
 Si2  0.81250000  0.31250000  0.06250000
 Si2  0.81250000  0.31250000  0.31250000
 Si2  0.81250000  0.31250000  0.56250000
 Si2  0.81250000  0.31250000  0.81250000
 Si2  0.81250000  0.56250000  0.06250000
 Si2  0.81250000  0.56250000  0.31250000
 Si2  0.81250000  0.56250000  0.56250000
 Si2  0.81250000  0.56250000  0.81250000
 Si2  0.81250000  0.81250000  0.06250000
 Si2  0.81250000  0.81250000  0.31250000
 Si2  0.81250000  0.81250000  0.56250000
 Si2  0.81250000  0.81250000  0.81250000
