          &CONTROL
             calculation = 'cp',
             restart_mode='from_scratch',
             prefix='CH4_PZ_cg_icg',
             pseudo_dir = '../../pseudo/',
             outdir = './SCRATCH'
             nstep=10000
             iprint=1
             ndr=90
             ndw=91
             ekin_conv_thr=1.0d-5
             etot_conv_thr=1.0d-6
             esic_conv_thr=1.0d-8
          /
          &SYSTEM
             ibrav=1,
             celldm(1)=25.0,
             nat=5,
             ntyp=2,
             ecutwfc=35.0,
             nspin=1
             do_ee =.true.
             which_orbdep='pz'
             do_innerloop=.true.
             do_innerloop_cg=.true.
             innerloop_cg_nsd=20
             innerloop_cg_nreset=10
             innerloop_nmax = 5
          /
          &ELECTRONS
             electron_dynamics='cg',
             passop=0.5,
             maxiter = 2500,
             conv_thr=1.d-8
          /
          &IONS
             ion_dynamics='none',
             ion_radius(1)=1.0,
          /
          &EE
             which_compensation="tcc"
          /

    ATOMIC_SPECIES
H     1.0079    H.pz-vbc.UPF
C    12.011     C.pz-vbc.UPF
    ATOMIC_POSITIONS {bohr}
C      0.000000000     0.000000000     0.000000000
H      0.000000000     0.000000000    -2.000000000
H      0.000000000     0.000000000     2.000000000
H      0.000000000     2.000000000     0.000000000
H      0.000000000    -2.000000000     0.000000000
