&CONTROL
    prefix='benzene'
    calculation='cp',
    restart_mode='restart',
    nstep=100, 
    iprint=1, 
    ndr=91
    ndw=92
    dt=15.0,
    pseudo_dir='../../pseudo/',
    outdir='./SCRATCH',
    ekin_conv_thr = 1.0e-5
    etot_conv_thr = 1.0e-6
/
&SYSTEM
    ecutwfc = 40.0 
    ibrav = 1
    celldm(1) = 25.0
    nat = 12
    ntyp = 2
    do_ee =.true.
/
&ELECTRONS
    electron_dynamics='damp', 
    electron_damping=0.05,
    emass=1000., 
    emass_cutoff=3.,
    ortho_max=500
    !ortho_para=1
/
&IONS
    ion_dynamics='none',
    ion_radius(1)=1.0, 
/
&EE
    which_compensation ='tcc'
 /
ATOMIC_SPECIES
H     1.0079    H.pz-vbc.UPF
C    12.011     C.pz-vbc.UPF
ATOMIC_POSITIONS (angstrom)
C           1.401699340       0.000000000       0.000000000
C          -1.401699340       0.000000000       0.000000000
C           0.700849670      -1.213907237       0.000000000
C          -0.700849670      -1.213907237       0.000000000
C          -0.700849670       1.213907237       0.000000000
C           0.700849670       1.213907237       0.000000000
H           2.492698827       0.000000000       0.000000000
H          -2.492698827       0.000000000       0.000000000
H           1.246349414      -2.158740508       0.000000000
H          -1.246349414      -2.158740508       0.000000000
H          -1.246349414       2.158740508       0.000000000
H           1.246349414       2.158740508       0.000000000

